p edge 40 83 20
v 2 5 39
v 2 29 38
v 2 12 21
v 1 16
v 3 8 25 28
v 2 2 36
v 1 18
v 1 37
v 3 13 14 27
v 1 32
v 3 7 17 34
v 2 22 40
v 3 4 11 20
v 1 3
v 3 1 6 35
v 3 15 24 30
v 1 26
v 3 10 19 31
v 1 33
v 2 9 23
e 1 6
e 1 18
e 1 21
e 1 22
e 1 24
e 1 27
e 1 29
e 2 12
e 2 15
e 2 16
e 2 18
e 2 19
e 2 21
e 2 34
e 3 10
e 3 14
e 3 16
e 4 14
e 4 20
e 4 29
e 5 14
e 5 20
e 5 23
e 5 25
e 6 12
e 6 16
e 6 19
e 6 26
e 6 31
e 7 13
e 7 16
e 8 40
e 9 19
e 9 27
e 9 35
e 9 36
e 10 11
e 10 26
e 10 34
e 10 35
e 11 15
e 11 22
e 11 38
e 13 14
e 13 39
e 14 24
e 15 16
e 16 22
e 16 23
e 16 27
e 16 38
e 17 26
e 17 34
e 17 36
e 18 40
e 20 21
e 20 33
e 20 38
e 20 39
e 21 29
e 21 34
e 22 32
e 22 33
e 22 39
e 22 40
e 23 24
e 24 34
e 24 35
e 26 27
e 26 28
e 26 30
e 26 32
e 27 29
e 27 32
e 27 37
e 27 38
e 28 34
e 28 38
e 29 39
e 31 40
e 34 35
e 35 37
e 37 38
